data/solutions/recovery/wellformed/moderate/binding/wellformed_moderate_instance89/21.sol
Elapsed time: 0.02
Upper bound: 10965.0
Planning weighted value: 599774.0
C[0]=10965.0
C[1]=9912.0
C[2]=9430.0
C[3]=5884.0
C[4]=5118.0
C[5]=2054.0
y[0]=0
y[1]=1
y[2]=4
y[3]=1
y[4]=1
y[5]=2
y[6]=0
y[7]=4
y[8]=2
y[9]=3
y[10]=2
y[11]=4
y[12]=3
y[13]=0
y[14]=0
y[15]=2
y[16]=3
y[17]=3
y[18]=1
y[19]=0
y[20]=2
y[21]=1
y[22]=5
y[23]=1
y[24]=1
y[25]=2
y[26]=3
y[27]=5
y[28]=2
y[29]=0
y[30]=0
y[31]=2
y[32]=5
y[33]=3
y[34]=0
y[35]=4
y[36]=4
y[37]=0
y[38]=0
y[39]=0
y[40]=1
y[41]=1
